NAME : random_14
COMMENT : 31 random nodes
TYPE : TSP
DIMENSION : 31
EDGE_WEIGHT_TYPE : EUC_2D
NODE_COORD_SECTION
1 772 -2116
2 4311 3341
3 -1680 2459
4 754 3469
5 -90 -1127
6 -740 -2520
7 615 861
8 -2579 4120
9 3651 1771
10 2535 2907
11 -2523 1888
12 -482 1571
13 2960 -1460
14 831 -838
15 -7 1461
16 1976 -1654
17 2841 2809
18 4483 2501
19 4033 4271
20 2689 2938
21 -244 -1323
22 3991 -1301
23 1720 214
24 -2156 106
25 2494 -183
26 29 -2011
27 -2523 -151
28 -798 1025
29 -686 -1039
30 3770 2393
31 707 172
EOF